pair_style meam
pair_coeff * * example/input/library.meam Co Ni Cr Fe Mn example/input/CoNiCrFeMn.meam Co Ni Cr Fe Mn
